<number of tasks>
100

<cycle time>
1000

<order strength>
0.197


<task times>
1 184
2 132
3 127
4 192
5 539
6 191
7 322
8 243
9 47
10 301
11 149
12 143
13 228
14 216
15 336
16 166
17 191
18 157
19 75
20 64
21 83
22 79
23 152
24 198
25 36
26 43
27 213
28 80
29 116
30 222
31 157
32 185
33 553
34 153
35 156
36 424
37 63
38 131
39 96
40 37
41 84
42 182
43 492
44 180
45 493
46 79
47 212
48 28
49 88
50 189
51 197
52 555
53 257
54 223
55 43
56 353
57 498
58 302
59 139
60 188
61 353
62 272
63 532
64 79
65 299
66 505
67 159
68 317
69 635
70 506
71 207
72 182
73 269
74 335
75 77
76 143
77 86
78 549
79 210
80 93
81 247
82 275
83 56
84 226
85 45
86 246
87 139
88 333
89 122
90 162
91 159
92 392
93 83
94 244
95 140
96 110
97 519
98 164
99 230
100 182

<precedence relations>
1,7
2,8
2,77
3,100
4,9
5,10
5,11
5,17
5,80
5,90
6,10
6,26
7,12
8,13
9,14
10,59
11,70
12,15
13,16
14,17
14,18
14,19
14,20
14,21
14,22
15,24
16,25
17,23
18,26
20,27
20,29
22,28
22,30
22,80
23,31
24,32
25,33
26,34
26,35
26,37
27,89
28,36
29,38
30,39
30,59
31,40
32,43
33,44
34,41
34,45
34,47
34,48
35,42
35,78
36,46
37,49
38,49
38,68
40,50
41,51
42,52
43,54
44,60
45,55
46,56
47,57
48,53
48,59
49,58
49,61
49,62
50,63
51,68
52,64
53,66
54,68
55,69
56,68
57,68
58,65
58,71
59,67
61,70
62,77
62,78
63,72
64,73
65,74
66,75
67,76
68,78
68,79
68,81
69,80
71,77
72,82
73,83
74,85
75,84
76,86
77,88
77,89
77,91
77,92
79,88
80,98
81,87
81,90
81,91
82,93
83,94
84,97
85,95
86,96
87,100
89,98
90,99
90,100
92,98

<end>
